words_hard_train/3330.qaiger
aag 71 16 0 1 55
2
4
8
10
20
22
32
34
46
48
62
64
68
70
88
90
142
6 2 5
12 8 11
14 7 13
16 9 10
18 15 17
24 20 23
26 19 25
28 21 22
30 27 29
36 33 34
38 32 35
40 37 39
42 30 40
44 43 39
50 47 48
52 46 49
54 51 53
56 44 55
58 45 54
60 57 59
66 62 65
72 68 70
74 69 71
76 73 75
78 67 77
80 63 64
82 81 67
84 79 83
86 59 53
92 89 90
94 88 91
96 93 95
98 87 96
100 99 95
102 84 100
104 101 82
106 103 105
108 61 107
110 25 29
112 111 17
114 110 13
116 113 115
118 116 7
120 3 4
122 118 121
124 31 41
126 125 43
128 122 127
130 86 97
132 131 99
134 128 133
136 105 67
138 137 76
140 134 139
142 108 140
i0 2 y1[0]
i1 1 x1[0]
i2 2 y1[1]
i3 1 x1[1]
i4 2 y1[2]
i5 1 x1[2]
i6 2 y1[3]
i7 1 x1[3]
i8 2 y1[4]
i9 1 x1[4]
i10 2 y1[6]
i11 1 x1[6]
i12 2 y1[7]
i13 1 x1[7]
i14 2 y1[5]
i15 1 x1[5]
o0 bool[0]
c
simplified
  ==
    abs
      1
    subtract
      2 y1
      add
        1
        1 x1
