words_hard_train/3330.qaiger.qdimacs
p cnf 71 166
a 32 2 35 5 11 45 17 24 0
e 1 3 4 6 7 8 9 10 12 13 14 15 16 18 19 20 21 22 23 25 26 27 28 29 30 31 33 34 36 37 38 39 40 41 42 43 44 46 47 48 49 50 51 52 53 54 55 56 57 58 59 60 61 62 63 64 65 66 67 68 69 70 71 0
-1 2 3 0
1 -3 0
-2 -3 0
-4 5 6 0
4 -6 0
-5 -6 0
3 6 7 0
-3 -7 0
-6 -7 0
4 -5 8 0
-4 -8 0
5 -8 0
7 8 9 0
-7 -9 0
-8 -9 0
-10 11 12 0
10 -12 0
-11 -12 0
9 12 13 0
-9 -13 0
-12 -13 0
10 -11 14 0
-10 -14 0
11 -14 0
13 14 15 0
-13 -15 0
-14 -15 0
16 -17 18 0
-16 -18 0
17 -18 0
-16 17 19 0
16 -19 0
-17 -19 0
18 19 20 0
-18 -20 0
-19 -20 0
-15 -20 21 0
15 -21 0
20 -21 0
21 19 22 0
-21 -22 0
-19 -22 0
23 -24 25 0
-23 -25 0
24 -25 0
-23 24 26 0
23 -26 0
-24 -26 0
25 26 27 0
-25 -27 0
-26 -27 0
-22 27 28 0
22 -28 0
-27 -28 0
22 -27 29 0
-22 -29 0
27 -29 0
28 29 30 0
-28 -30 0
-29 -30 0
-31 32 33 0
31 -33 0
-32 -33 0
-34 -35 36 0
34 -36 0
35 -36 0
34 35 37 0
-34 -37 0
-35 -37 0
36 37 38 0
-36 -38 0
-37 -38 0
33 38 39 0
-33 -39 0
-38 -39 0
31 -32 40 0
-31 -40 0
32 -40 0
40 33 41 0
-40 -41 0
-33 -41 0
39 41 42 0
-39 -42 0
-41 -42 0
29 26 43 0
-29 -43 0
-26 -43 0
44 -45 46 0
-44 -46 0
45 -46 0
-44 45 47 0
44 -47 0
-45 -47 0
46 47 48 0
-46 -48 0
-47 -48 0
43 -48 49 0
-43 -49 0
48 -49 0
49 47 50 0
-49 -50 0
-47 -50 0
-42 -50 51 0
42 -51 0
50 -51 0
50 -41 52 0
-50 -52 0
41 -52 0
51 52 53 0
-51 -53 0
-52 -53 0
30 53 54 0
-30 -54 0
-53 -54 0
12 14 55 0
-12 -55 0
-14 -55 0
55 8 56 0
-55 -56 0
-8 -56 0
-55 6 57 0
55 -57 0
-6 -57 0
56 57 58 0
-56 -58 0
-57 -58 0
-58 3 59 0
58 -59 0
-3 -59 0
1 -2 60 0
-1 -60 0
2 -60 0
-59 60 61 0
59 -61 0
-60 -61 0
15 20 62 0
-15 -62 0
-20 -62 0
62 21 63 0
-62 -63 0
-21 -63 0
-61 63 64 0
61 -64 0
-63 -64 0
-43 48 65 0
43 -65 0
-48 -65 0
65 49 66 0
-65 -66 0
-49 -66 0
-64 66 67 0
64 -67 0
-66 -67 0
52 33 68 0
-52 -68 0
-33 -68 0
68 -38 69 0
-68 -69 0
38 -69 0
-67 69 70 0
67 -70 0
-69 -70 0
-54 -70 71 0
54 -71 0
70 -71 0
71 0
